============================[ Problem Statistics ]=============================
|                                                                             |
|  Number of variables:           180                                         |
|  Number of clauses:             432                                         |
|  Parse time:                   0.00 s                                       |
|  Simplification time:          0.00 s                                       |
|                                                                             |
============================[ Search Statistics ]==============================
| Conflicts |          ORIGINAL         |          LEARNT          | Progress |
|           |    Vars  Clauses Literals |    Limit  Clauses Lit/Cl |          |
===============================================================================
|       100 |     180      432     1080 |      158      100     31 |  0.003 % |
|       250 |     180      432     1080 |      174      150     24 |  0.003 % |
|       475 |     180      432     1080 |      191      169     24 |  0.003 % |
|       812 |     180      432     1080 |      210      176     21 |  0.003 % |
|      1318 |     180      432     1080 |      231      136     15 |  0.003 % |
|      2077 |     180      432     1080 |      255      199     17 |  0.003 % |
|      3216 |     180      432     1080 |      280      246     21 |  0.003 % |
|      4924 |     180      432     1080 |      308      281     20 |  0.003 % |
|      7486 |     180      432     1080 |      339      238     18 |  0.003 % |
|     11330 |     180      432     1080 |      373      285     17 |  0.003 % |
|     17096 |     180      432     1080 |      410      369     23 |  0.003 % |
|     25745 |     180      432     1080 |      451      304     20 |  0.003 % |
|     38719 |     180      432     1080 |      497      362     19 |  0.003 % |
|     58180 |     180      432     1080 |      546      381     17 |  0.003 % |
|     87372 |     180      432     1080 |      601      604     25 |  0.003 % |
|    131161 |     180      432     1080 |      661      400     17 |  0.003 % |
|    196845 |     180      432     1080 |      727      657     24 |  0.003 % |
|    295371 |     180      432     1080 |      800      596     23 |  0.003 % |
|    443160 |     180      432     1080 |      880      494     21 |  0.003 % |
|    664843 |     180      432     1080 |      968      468     18 |  0.003 % |
|    997368 |     180      432     1080 |     1065      608     22 |  0.003 % |
|   1496156 |     180      432     1080 |     1172      903     27 |  0.003 % |
|   2244338 |     180      432     1080 |     1289      721     23 |  0.003 % |
|   3366612 |     180      432     1080 |     1418     1107     25 |  0.003 % |
|   5050023 |     180      432     1080 |     1560     1110     28 |  0.003 % |
|   7575139 |     180      432     1080 |     1716      950     27 |  0.003 % |
|  11362814 |     180      432     1080 |     1887     1289     31 |  0.003 % |
|  17044326 |     180      432     1080 |     2076     1129     28 |  0.003 % |
|  25566595 |     180      432     1080 |     2284     1735     28 |  0.003 % |
|  38349998 |     180      432     1080 |     2512     2184     31 |  0.003 % |
===============================================================================
restarts              : 72188
conflicts             : 56285917       (79145 /sec)
decisions             : 68371190       (0.00 % random) (96138 /sec)
propagations          : 2150141475     (3023369 /sec)
conflict literals     : 1908627721     (10.46 % deleted)
Memory used           : 23.50 MB
CPU time              : 711.174 s

SATISFIABLE